
<<< setup

Version identifier: 22.1.0.0 | 2022-03-09 | 1a383f8ce
Tried aggregator 1 time.
LP Presolve eliminated 46 rows and 16 columns.
Reduced LP has 2 rows, 18 columns, and 18 nonzeros.
Presolve time = 0.00 sec. (0.02 ticks)

Iteration log . . .
Iteration:     1   Dual objective     =          5902.928792
main returns 0

<<< main


<<< done

